p edge 27 37
e 1 7
e 1 9
e 1 18
e 1 11
e 2 11
e 3 14
e 4 21
e 4 27
e 5 8
e 5 11
e 5 21
e 6 23
e 7 9
e 7 18
e 7 11
e 8 26
e 8 17
e 8 13
e 8 16
e 9 18
e 9 11
e 10 12
e 11 15
e 11 21
e 11 18
e 12 20
e 12 19
e 12 26
e 13 16
e 13 17
e 14 16
e 15 25
e 21 26
e 21 25
e 21 27
e 22 24
e 26 27
